0 3350
2 3271
5 3239
16 3192
20 3182
22 3131
26 3118
33 3106
40 3067
49 3060
54 3042
56 3037
57 3029
58 3026
72 2994
98 2987
109 2959
110 2943
142 2935
143 2933
150 2924
156 2903
167 2902
177 2888
205 2879
206 2877
208 2874
267 2856
270 2844
366 2808
368 2800
371 2774
1278 2756
1464 2754
1635 2735
110416 2730
110646 2729
872767 2726
872770 2724
